NAME: tsp25_17
COMMENT: 25-tsp problem (Padberg/Rinaldi)
TYPE: TSP
DIMENSION: 25
EDGE_WEIGHT_TYPE : EUC_2D
NODE_COORD_SECTION
1.00 7.89 6.84
2.00 1.76 16.60
3.00 30.13 1.69
4.00 29.61 28.71
5.00 2.29 0.76
6.00 1.09 0.15
7.00 33.88 33.01
8.00 38.07 17.97
9.00 11.88 23.34
10.00 9.28 11.71
11.00 5.79 39.27
12.00 5.92 28.67
13.00 34.81 2.61
14.00 0.98 15.25
15.00 28.87 10.01
16.00 5.71 34.00
17.00 38.97 11.84
18.00 23.71 26.01
19.00 23.21 1.72
20.00 39.30 32.50
21.00 30.52 18.82
22.00 18.19 36.28
23.00 25.04 9.48
24.00 0.05 3.83
25.00 39.58 9.55
